data/mip_solutions/furman_sahinidis/transshipment/7sp2_gurobi.sol
Elapsed time: 0.0851769447327
Nodes explored: 32
Upper bound: 7.0
Lower bound: 7.0
y[0,0]=1
y[0,1]=1
y[0,2]=1
y[1,0]=1
y[1,3]=1
y[2,1]=1
y[3,0]=1
q[0,0,4]=162.0
q[0,1,3]=224.4
q[0,2,3]=4128.0
q[1,0,4]=862.47
q[1,3,4]=2099.2
q[1,3,5]=1312.0
q[2,1,3]=1855.6
q[2,1,4]=1600.0
q[2,1,5]=800.0
q[2,1,6]=800.0
q[3,0,3]=1600.0
q[3,0,4]=575.53
r[0,1]=1354.32
r[0,2]=2827.44
r[0,3]=3326.4
r[0,4]=162.0
r[1,3]=331.17
r[1,4]=2538.97
r[1,5]=1154.3
r[2,2]=818.4
r[2,3]=1095.6
r[2,4]=1088.0
r[2,5]=808.0
r[2,6]=668.0
r[3,4]=575.53
